#=======================================================
# FHI-aims file: /u/18/mikkolp2/data/Desktop/PPBO/Camphor_Copper/geometry.in
# Created using the Atomic Simulation Environment (ASE)
# Mon Jun  8 22:43:43 2020
#=======================================================
lattice_vector 15.4075060370914017 0.0000000000000000 0.0000000000000000 
lattice_vector 0.0000000000000000 17.7910555161110082 0.0000000000000000 
lattice_vector 0.0000000000000000 0.0000000000000000 56.2900879999542170 
atom 0.0000000000000000 0.0000000000000000 2.0000000000000000 Cu
    constrain_relaxation .true.
atom 2.5679176728485666 0.0000000000000000 2.0000000000000000 Cu
    constrain_relaxation .true.
atom 5.1358353456971333 0.0000000000000000 2.0000000000000000 Cu
    constrain_relaxation .true.
atom 7.7037530185456999 0.0000000000000000 2.0000000000000000 Cu
    constrain_relaxation .true.
atom 10.2716706913942666 0.0000000000000000 2.0000000000000000 Cu
    constrain_relaxation .true.
atom 12.8395883642428323 0.0000000000000000 2.0000000000000000 Cu
    constrain_relaxation .true.
atom 1.2839588364242833 2.2238819395138760 2.0000000000000000 Cu
    constrain_relaxation .true.
atom 3.8518765092728500 2.2238819395138760 2.0000000000000000 Cu
    constrain_relaxation .true.
atom 6.4197941821214162 2.2238819395138760 2.0000000000000000 Cu
    constrain_relaxation .true.
atom 8.9877118549699837 2.2238819395138760 2.0000000000000000 Cu
    constrain_relaxation .true.
atom 11.5556295278185495 2.2238819395138760 2.0000000000000000 Cu
    constrain_relaxation .true.
atom 14.1235472006671170 2.2238819395138760 2.0000000000000000 Cu
    constrain_relaxation .true.
atom 0.0000000000000000 4.4477638790277521 2.0000000000000000 Cu
    constrain_relaxation .true.
atom 2.5679176728485666 4.4477638790277521 2.0000000000000000 Cu
    constrain_relaxation .true.
atom 5.1358353456971333 4.4477638790277521 2.0000000000000000 Cu
    constrain_relaxation .true.
atom 7.7037530185456999 4.4477638790277521 2.0000000000000000 Cu
    constrain_relaxation .true.
atom 10.2716706913942666 4.4477638790277521 2.0000000000000000 Cu
    constrain_relaxation .true.
atom 12.8395883642428323 4.4477638790277521 2.0000000000000000 Cu
    constrain_relaxation .true.
atom 1.2839588364242833 6.6716458185416281 2.0000000000000000 Cu
    constrain_relaxation .true.
atom 3.8518765092728500 6.6716458185416281 2.0000000000000000 Cu
    constrain_relaxation .true.
atom 6.4197941821214162 6.6716458185416281 2.0000000000000000 Cu
    constrain_relaxation .true.
atom 8.9877118549699837 6.6716458185416281 2.0000000000000000 Cu
    constrain_relaxation .true.
atom 11.5556295278185495 6.6716458185416281 2.0000000000000000 Cu
    constrain_relaxation .true.
atom 14.1235472006671170 6.6716458185416281 2.0000000000000000 Cu
    constrain_relaxation .true.
atom 0.0000000000000000 8.8955277580555041 2.0000000000000000 Cu
    constrain_relaxation .true.
atom 2.5679176728485666 8.8955277580555041 2.0000000000000000 Cu
    constrain_relaxation .true.
atom 5.1358353456971333 8.8955277580555041 2.0000000000000000 Cu
    constrain_relaxation .true.
atom 7.7037530185456999 8.8955277580555041 2.0000000000000000 Cu
    constrain_relaxation .true.
atom 10.2716706913942666 8.8955277580555041 2.0000000000000000 Cu
    constrain_relaxation .true.
atom 12.8395883642428323 8.8955277580555041 2.0000000000000000 Cu
    constrain_relaxation .true.
atom 1.2839588364242833 11.1194096975693810 2.0000000000000000 Cu
    constrain_relaxation .true.
atom 3.8518765092728500 11.1194096975693810 2.0000000000000000 Cu
    constrain_relaxation .true.
atom 6.4197941821214162 11.1194096975693810 2.0000000000000000 Cu
    constrain_relaxation .true.
atom 8.9877118549699837 11.1194096975693810 2.0000000000000000 Cu
    constrain_relaxation .true.
atom 11.5556295278185495 11.1194096975693810 2.0000000000000000 Cu
    constrain_relaxation .true.
atom 14.1235472006671170 11.1194096975693810 2.0000000000000000 Cu
    constrain_relaxation .true.
atom 0.0000000000000000 13.3432916370832562 2.0000000000000000 Cu
    constrain_relaxation .true.
atom 2.5679176728485666 13.3432916370832562 2.0000000000000000 Cu
    constrain_relaxation .true.
atom 5.1358353456971333 13.3432916370832562 2.0000000000000000 Cu
    constrain_relaxation .true.
atom 7.7037530185456999 13.3432916370832562 2.0000000000000000 Cu
    constrain_relaxation .true.
atom 10.2716706913942666 13.3432916370832562 2.0000000000000000 Cu
    constrain_relaxation .true.
atom 12.8395883642428323 13.3432916370832562 2.0000000000000000 Cu
    constrain_relaxation .true.
atom 1.2839588364242833 15.5671735765971313 2.0000000000000000 Cu
    constrain_relaxation .true.
atom 3.8518765092728500 15.5671735765971313 2.0000000000000000 Cu
    constrain_relaxation .true.
atom 6.4197941821214162 15.5671735765971313 2.0000000000000000 Cu
    constrain_relaxation .true.
atom 8.9877118549699837 15.5671735765971313 2.0000000000000000 Cu
    constrain_relaxation .true.
atom 11.5556295278185495 15.5671735765971313 2.0000000000000000 Cu
    constrain_relaxation .true.
atom 14.1235472006671170 15.5671735765971313 2.0000000000000000 Cu
    constrain_relaxation .true.
atom 1.2839588364242833 0.7412939798379586 4.0966959999847390 Cu
    constrain_relaxation .true.
atom 3.8518765092728500 0.7412939798379586 4.0966959999847390 Cu
    constrain_relaxation .true.
atom 6.4197941821214162 0.7412939798379586 4.0966959999847390 Cu
    constrain_relaxation .true.
atom 8.9877118549699837 0.7412939798379586 4.0966959999847390 Cu
    constrain_relaxation .true.
atom 11.5556295278185495 0.7412939798379586 4.0966959999847390 Cu
    constrain_relaxation .true.
atom 14.1235472006671170 0.7412939798379586 4.0966959999847390 Cu
    constrain_relaxation .true.
atom 0.0000000000000000 2.9651759193518346 4.0966959999847390 Cu
    constrain_relaxation .true.
atom 2.5679176728485666 2.9651759193518346 4.0966959999847390 Cu
    constrain_relaxation .true.
atom 5.1358353456971333 2.9651759193518346 4.0966959999847390 Cu
    constrain_relaxation .true.
atom 7.7037530185456999 2.9651759193518346 4.0966959999847390 Cu
    constrain_relaxation .true.
atom 10.2716706913942666 2.9651759193518346 4.0966959999847390 Cu
    constrain_relaxation .true.
atom 12.8395883642428323 2.9651759193518346 4.0966959999847390 Cu
    constrain_relaxation .true.
atom 1.2839588364242833 5.1890578588657110 4.0966959999847390 Cu
    constrain_relaxation .true.
atom 3.8518765092728500 5.1890578588657110 4.0966959999847390 Cu
    constrain_relaxation .true.
atom 6.4197941821214162 5.1890578588657110 4.0966959999847390 Cu
    constrain_relaxation .true.
atom 8.9877118549699837 5.1890578588657110 4.0966959999847390 Cu
    constrain_relaxation .true.
atom 11.5556295278185495 5.1890578588657110 4.0966959999847390 Cu
    constrain_relaxation .true.
atom 14.1235472006671170 5.1890578588657110 4.0966959999847390 Cu
    constrain_relaxation .true.
atom 0.0000000000000000 7.4129397983795871 4.0966959999847390 Cu
    constrain_relaxation .true.
atom 2.5679176728485666 7.4129397983795871 4.0966959999847390 Cu
    constrain_relaxation .true.
atom 5.1358353456971333 7.4129397983795871 4.0966959999847390 Cu
    constrain_relaxation .true.
atom 7.7037530185456999 7.4129397983795871 4.0966959999847390 Cu
    constrain_relaxation .true.
atom 10.2716706913942666 7.4129397983795871 4.0966959999847390 Cu
    constrain_relaxation .true.
atom 12.8395883642428323 7.4129397983795871 4.0966959999847390 Cu
    constrain_relaxation .true.
atom 1.2839588364242833 9.6368217378934613 4.0966959999847390 Cu
    constrain_relaxation .true.
atom 3.8518765092728500 9.6368217378934613 4.0966959999847390 Cu
    constrain_relaxation .true.
atom 6.4197941821214162 9.6368217378934613 4.0966959999847390 Cu
    constrain_relaxation .true.
atom 8.9877118549699837 9.6368217378934613 4.0966959999847390 Cu
    constrain_relaxation .true.
atom 11.5556295278185495 9.6368217378934613 4.0966959999847390 Cu
    constrain_relaxation .true.
atom 14.1235472006671170 9.6368217378934613 4.0966959999847390 Cu
    constrain_relaxation .true.
atom 0.0000000000000000 11.8607036774073382 4.0966959999847390 Cu
    constrain_relaxation .true.
atom 2.5679176728485666 11.8607036774073382 4.0966959999847390 Cu
    constrain_relaxation .true.
atom 5.1358353456971333 11.8607036774073382 4.0966959999847390 Cu
    constrain_relaxation .true.
atom 7.7037530185456999 11.8607036774073382 4.0966959999847390 Cu
    constrain_relaxation .true.
atom 10.2716706913942666 11.8607036774073382 4.0966959999847390 Cu
    constrain_relaxation .true.
atom 12.8395883642428323 11.8607036774073382 4.0966959999847390 Cu
    constrain_relaxation .true.
atom 1.2839588364242833 14.0845856169212134 4.0966959999847390 Cu
    constrain_relaxation .true.
atom 3.8518765092728500 14.0845856169212134 4.0966959999847390 Cu
    constrain_relaxation .true.
atom 6.4197941821214162 14.0845856169212134 4.0966959999847390 Cu
    constrain_relaxation .true.
atom 8.9877118549699837 14.0845856169212134 4.0966959999847390 Cu
    constrain_relaxation .true.
atom 11.5556295278185495 14.0845856169212134 4.0966959999847390 Cu
    constrain_relaxation .true.
atom 14.1235472006671170 14.0845856169212134 4.0966959999847390 Cu
    constrain_relaxation .true.
atom 0.0000000000000000 16.3084675564350903 4.0966959999847390 Cu
    constrain_relaxation .true.
atom 2.5679176728485666 16.3084675564350903 4.0966959999847390 Cu
    constrain_relaxation .true.
atom 5.1358353456971333 16.3084675564350903 4.0966959999847390 Cu
    constrain_relaxation .true.
atom 7.7037530185456999 16.3084675564350903 4.0966959999847390 Cu
    constrain_relaxation .true.
atom 10.2716706913942666 16.3084675564350903 4.0966959999847390 Cu
    constrain_relaxation .true.
atom 12.8395883642428323 16.3084675564350903 4.0966959999847390 Cu
    constrain_relaxation .true.
atom 0.0000000000000000 1.4825879596759173 6.1775869999847401 Cu
atom 2.5679176728485666 1.4825879596759173 6.1775869999847401 Cu
atom 5.1358353456971333 1.4825879596759173 6.1775869999847401 Cu
atom 7.7037530185456999 1.4825879596759173 6.1775869999847401 Cu
atom 10.2716706913942666 1.4825879596759173 6.1775869999847401 Cu
atom 12.8395883642428323 1.4825879596759173 6.1775869999847401 Cu
atom 1.2839588364242833 3.7064698991897931 6.1775869999847401 Cu
atom 3.8518765092728500 3.7064698991897931 6.1775869999847401 Cu
atom 6.4197941821214162 3.7064698991897931 6.1775869999847401 Cu
atom 8.9877118549699837 3.7064698991897931 6.1775869999847401 Cu
atom 11.5556295278185495 3.7064698991897931 6.1775869999847401 Cu
atom 14.1235472006671170 3.7064698991897931 6.1775869999847401 Cu
atom 0.0000000000000000 5.9303518387036691 6.1775869999847401 Cu
atom 2.5679176728485666 5.9303518387036691 6.1775869999847401 Cu
atom 5.1358353456971333 5.9303518387036691 6.1775869999847401 Cu
atom 7.7037530185456999 5.9303518387036691 6.1775869999847401 Cu
atom 10.2716706913942666 5.9303518387036691 6.1775869999847401 Cu
atom 12.8395883642428323 5.9303518387036691 6.1775869999847401 Cu
atom 1.2839588364242833 8.1542337782175451 6.1775869999847401 Cu
atom 3.8518765092728500 8.1542337782175451 6.1775869999847401 Cu
atom 6.4197941821214162 8.1542337782175451 6.1775869999847401 Cu
atom 8.9877118549699837 8.1542337782175451 6.1775869999847401 Cu
atom 11.5556295278185495 8.1542337782175451 6.1775869999847401 Cu
atom 14.1235472006671170 8.1542337782175451 6.1775869999847401 Cu
atom 0.0000000000000000 10.3781157177314221 6.1775869999847401 Cu
atom 2.5679176728485666 10.3781157177314221 6.1775869999847401 Cu
atom 5.1358353456971333 10.3781157177314221 6.1775869999847401 Cu
atom 7.7037530185456999 10.3781157177314221 6.1775869999847401 Cu
atom 10.2716706913942666 10.3781157177314221 6.1775869999847401 Cu
atom 12.8395883642428323 10.3781157177314221 6.1775869999847401 Cu
atom 1.2839588364242833 12.6019976572452990 6.1775869999847401 Cu
atom 3.8518765092728500 12.6019976572452990 6.1775869999847401 Cu
atom 6.4197941821214162 12.6019976572452990 6.1775869999847401 Cu
atom 8.9877118549699837 12.6019976572452990 6.1775869999847401 Cu
atom 11.5556295278185495 12.6019976572452990 6.1775869999847401 Cu
atom 14.1235472006671170 12.6019976572452990 6.1775869999847401 Cu
atom 0.0000000000000000 14.8258795967591741 6.1775869999847401 Cu
atom 2.5679176728485666 14.8258795967591741 6.1775869999847401 Cu
atom 5.1358353456971333 14.8258795967591741 6.1775869999847401 Cu
atom 7.7037530185456999 14.8258795967591741 6.1775869999847401 Cu
atom 10.2716706913942666 14.8258795967591741 6.1775869999847401 Cu
atom 12.8395883642428323 14.8258795967591741 6.1775869999847401 Cu
atom 1.2839588364242833 17.0497615362730492 6.1775869999847401 Cu
atom 3.8518765092728500 17.0497615362730492 6.1775869999847401 Cu
atom 6.4197941821214162 17.0497615362730492 6.1775869999847401 Cu
atom 8.9877118549699837 17.0497615362730492 6.1775869999847401 Cu
atom 11.5556295278185495 17.0497615362730492 6.1775869999847401 Cu
atom 14.1235472006671170 17.0497615362730492 6.1775869999847401 Cu
atom 0.0000000000000000 0.0000000000000000 8.2532519999847374 Cu
atom 2.5679176728485666 0.0000000000000000 8.2532519999847374 Cu
atom 5.1358353456971333 0.0000000000000000 8.2532519999847374 Cu
atom 7.7037530185456999 0.0000000000000000 8.2532519999847374 Cu
atom 10.2716706913942666 0.0000000000000000 8.2532519999847374 Cu
atom 12.8395883642428323 0.0000000000000000 8.2532519999847374 Cu
atom 1.2839588364242833 2.2238819395138760 8.2532519999847374 Cu
atom 3.8518765092728500 2.2238819395138760 8.2532519999847374 Cu
atom 6.4197941821214162 2.2238819395138760 8.2532519999847374 Cu
atom 8.9877118549699837 2.2238819395138760 8.2532519999847374 Cu
atom 11.5556295278185495 2.2238819395138760 8.2532519999847374 Cu
atom 14.1235472006671170 2.2238819395138760 8.2532519999847374 Cu
atom 0.0000000000000000 4.4477638790277521 8.2532519999847374 Cu
atom 2.5679176728485666 4.4477638790277521 8.2532519999847374 Cu
atom 5.1358353456971333 4.4477638790277521 8.2532519999847374 Cu
atom 7.7037530185456999 4.4477638790277521 8.2532519999847374 Cu
atom 10.2716706913942666 4.4477638790277521 8.2532519999847374 Cu
atom 12.8395883642428323 4.4477638790277521 8.2532519999847374 Cu
atom 1.2839588364242833 6.6716458185416281 8.2532519999847374 Cu
atom 3.8518765092728500 6.6716458185416281 8.2532519999847374 Cu
atom 6.4197941821214162 6.6716458185416281 8.2532519999847374 Cu
atom 8.9877118549699837 6.6716458185416281 8.2532519999847374 Cu
atom 11.5556295278185495 6.6716458185416281 8.2532519999847374 Cu
atom 14.1235472006671170 6.6716458185416281 8.2532519999847374 Cu
atom 0.0000000000000000 8.8955277580555041 8.2532519999847374 Cu
atom 2.5679176728485666 8.8955277580555041 8.2532519999847374 Cu
atom 5.1358353456971333 8.8955277580555041 8.2532519999847374 Cu
atom 7.7037530185456999 8.8955277580555041 8.2532519999847374 Cu
atom 10.2716706913942666 8.8955277580555041 8.2532519999847374 Cu
atom 12.8395883642428323 8.8955277580555041 8.2532519999847374 Cu
atom 1.2839588364242833 11.1194096975693810 8.2532519999847374 Cu
atom 3.8518765092728500 11.1194096975693810 8.2532519999847374 Cu
atom 6.4197941821214162 11.1194096975693810 8.2532519999847374 Cu
atom 8.9877118549699837 11.1194096975693810 8.2532519999847374 Cu
atom 11.5556295278185495 11.1194096975693810 8.2532519999847374 Cu
atom 14.1235472006671170 11.1194096975693810 8.2532519999847374 Cu
atom 0.0000000000000000 13.3432916370832562 8.2532519999847374 Cu
atom 2.5679176728485666 13.3432916370832562 8.2532519999847374 Cu
atom 5.1358353456971333 13.3432916370832562 8.2532519999847374 Cu
atom 7.7037530185456999 13.3432916370832562 8.2532519999847374 Cu
atom 10.2716706913942666 13.3432916370832562 8.2532519999847374 Cu
atom 12.8395883642428323 13.3432916370832562 8.2532519999847374 Cu
atom 1.2839588364242833 15.5671735765971313 8.2532519999847374 Cu
atom 3.8518765092728500 15.5671735765971313 8.2532519999847374 Cu
atom 6.4197941821214162 15.5671735765971313 8.2532519999847374 Cu
atom 8.9877118549699837 15.5671735765971313 8.2532519999847374 Cu
atom 11.5556295278185495 15.5671735765971313 8.2532519999847374 Cu
atom 14.1235472006671170 15.5671735765971313 8.2532519999847374 Cu
atom 9.1272103727793201 9.7885314491569382 12.7861114002474565 C
atom 7.7757924403941674 9.7296853725448269 12.0575980707227330 C
atom 6.7081122084443940 10.1359812051084184 13.0866197364057903 C
atom 6.6798748697064898 8.9038746021795649 14.0535930626770593 C
atom 8.0151135675824428 8.9996661558951097 14.8487201895135712 C
atom 8.7090270095388522 10.2213961239168434 14.2039495130635487 C
atom 7.5133813025650751 11.1944292975518422 13.9265841673532780 C
atom 6.7949964689542384 11.6650652269855772 15.1996861834006864 C
atom 7.9002250723837628 12.4425142493131862 13.1125260873986882 C
atom 5.3679761595482605 10.5174021584887498 12.4877514430628374 C
atom 7.5899021742119226 9.4079841960811272 10.8978654886157340 O
atom 9.7843967501320250 10.5099043073534304 12.2790963453630368 H
atom 9.6305564856966228 8.8116046563653327 12.7435825554835898 H
atom 5.8006455925168465 8.9770453175089493 14.7103795440777994 H
atom 6.5789204992530737 7.9630261416727208 13.4938669296010172 H
atom 7.8370579000326357 9.1514543796003380 15.9219115738890729 H
atom 8.6276050459042271 8.0924613971060566 14.7505893584068630 H
atom 9.5226657466066591 10.6524258753998105 14.8043137023513811 H
atom 5.9207374522183756 12.2874734173713556 14.9582733057476052 H
atom 6.4408124358713437 10.8120715630481179 15.7971548123609740 H
atom 7.4626681518114486 12.2630062633898103 15.8373994001325116 H
atom 8.6645497440496193 13.0380966269539975 13.6332015931857367 H
atom 8.3069868675420047 12.1673202744848830 12.1282409996736718 H
atom 7.0303745492386414 13.0939567599122473 12.9422697648478096 H
atom 5.4580984019958958 11.3983990555797696 11.8352734798087482 H
atom 4.9524561843911279 9.6975165773852456 11.8835031599506813 H
atom 4.6341285591109651 10.7577739056539858 13.2711345844420450 H
